=1
=2
=0IBM ILOG CPLEX   42.1.0 cb854401 Feb 1, 2023           LEG x86 64bit/Linux    
=1
--- GAMS/Cplex licensed for continuous and discrete problems.
=2
=C
=1
=CReading parameter(s) from "/storage/home/ejm6426/scratch/rtRBA-main/parameterization/kapp/datasets/Rabinowitz2023_batchGlc/min_flux_violation/cplex.opt"
=C>>  optcr = 1E-12
=C>>  optca = 1E-12
=C>>  eprhs = 1E-9
=C>> 
=CFinished reading from "/storage/home/ejm6426/scratch/rtRBA-main/parameterization/kapp/datasets/Rabinowitz2023_batchGlc/min_flux_violation/cplex.opt"
=2
=C
=1
--- GMO setup time: 0.00s
=2
=1
--- Space for names approximately 0.57 Mb
=2
=1
--- Use option 'names no' to turn use of names off
=2
=1
--- GMO memory 7.13 Mb (peak 7.23 Mb)
=2
=1
--- Dictionary memory 0.00 Mb
=2
=1
--- Cplex 22.1.1.0 link memory 0.31 Mb (peak 2.28 Mb)
=2
=1
--- Starting Cplex
=2
=C
Version identifier: 22.1.1.0 | 2022-11-28 | 9160aff4d
CPXPARAM_Advance                                 0
CPXPARAM_Threads                                 1
CPXPARAM_MIP_Display                             4
CPXPARAM_MIP_Pool_Capacity                       0
CPXPARAM_Simplex_Limits_Iterations               1000000
CPXPARAM_Simplex_Tolerances_Feasibility          1.0000000000000001e-09
CPXPARAM_TimeLimit                               1000
CPXPARAM_MIP_Tolerances_AbsMIPGap                9.9999999999999998e-13
CPXPARAM_MIP_Tolerances_MIPGap                   9.9999999999999998e-13
Row 'Stoic('BIO-protmito')' infeasible, all entries at implied bounds.
Presolve time = 0.01 sec. (4.63 ticks)
=C
=1
--- LP status (3): infeasible.
=2
=1
--- Cplex Time: 0.01sec (det. 4.65 ticks)

=2
=1
--- Model has been proven infeasible
=2
